enter example

minimize
 x0 + x1 + x2 + x3 + x4 + x5 + x6 + x7 + x8 + x9 + x10 + x11 + x12 + x13 + x14 + x15 + x16 + x17 + x18 + x19 + x20 + x21 + x22 + x23 + x24 + x25 + x26 + x27 + x28 + x29 + x30 + x31 + x32 + x33 + x34 + x35 + x36 + x37 + x38 + x39 + x40 + x41 + x42 + x43 + x44 + x45 + x46 + x47 + x48 + x49 + x50 + x51 + x52 + x53 + x54 + x55 + x56 + x57 + x58 + x59 + x60 +
 z0 + z1 + z2 + z3 + z4 + z5 + z6 + z7 + z8 + z9 + z10 + z11 + z12 + z13 + z14 + z15 + z16 + z17 + z18 + z19 + z20 + z21 + z22 + z23 + z24 + z25 + z26 + z27 + z28 + z29 + z30 + z31 + z32 + z33 + z34 + z35 + z36 + z37 + z38 + z39 + z40 + z41 + z42 + z43 + z44 + z45 + z46 + z47 + z48 + z49 + z50 + z51 + z52 + z53 + z54 + z55 + z56 + z57 + z58 + z59 + z60 +
 y0 + y1 + y2 + y3 + y4 + y5 + y6 + y7 + y8 + y9 + y10 + y11 + y12 + y13 + y14 + y15 + y16 + y17 + y18 + y19 + y20 + y21 + y22 + y23 + y24 + y25 + y26 + y27 + y28 + y29 + y30 + y31 + y32 + y33 + y34 + y35 + y36 + y37 + y38 + y39 + y40 + y41 + y42 + y43 + y44 + y45 + y46 + y47 + y48 + y49 + y50 + y51 + y52 + y53 + y54 + y55 + y56 + y57 + y58 + y59 + y60

subject to 
x0 + y0 + x6 + y6 + x36 + y36 -2 w0 = 0
x1 + y1 + x7 + y7 + x36 + y36 + x37 + y37 -2 w1 = 0
x2 + y2 + x8 + y8 + x37 + y37 + x38 + y38 -2 w2 = 0
x3 + y3 + x9 + y9 + x38 + y38 + x39 + y39 -2 w3 = 0
x4 + y4 + x10 + y10 + x39 + y39 + x40 + y40 -2 w4 = 0
x5 + y5 + x11 + y11 + x40 + y40 -2 w5 = 0
x6 + y6 + x12 + y12 + x41 + y41 -2 w6 = 0
x7 + y7 + x13 + y13 + x41 + y41 + x42 + y42 -2 w7 = 1
x8 + y8 + x14 + y14 + x42 + y42 + x43 + y43 -2 w8 = 0
x9 + y9 + x15 + y15 + x43 + y43 + x44 + y44 -2 w9 = 0
x10 + y10 + x16 + y16 + x44 + y44 + x45 + y45 -2 w10 = 0
x11 + y11 + x17 + y17 + x45 + y45 -2 w11 = 0
x12 + y12 + x18 + y18 + x46 + y46 -2 w12 = 0
x13 + y13 + x19 + y19 + x46 + y46 + x47 + y47 -2 w13 = 1
x14 + y14 + x20 + y20 + x47 + y47 + x48 + y48 -2 w14 = 0
x15 + y15 + x21 + y21 + x48 + y48 + x49 + y49 -2 w15 = 0
x16 + y16 + x22 + y22 + x49 + y49 + x50 + y50 -2 w16 = 0
x17 + y17 + x23 + y23 + x50 + y50 -2 w17 = 0
x18 + y18 + x24 + y24 + x51 + y51 -2 w18 = 0
x19 + y19 + x25 + y25 + x51 + y51 + x52 + y52 -2 w19 = 1
x20 + y20 + x26 + y26 + x52 + y52 + x53 + y53 -2 w20 = 1
x21 + y21 + x27 + y27 + x53 + y53 + x54 + y54 -2 w21 = 0
x22 + y22 + x28 + y28 + x54 + y54 + x55 + y55 -2 w22 = 0
x23 + y23 + x29 + y29 + x55 + y55 -2 w23 = 0
x24 + y24 + x30 + y30 + x56 + y56 -2 w24 = 0
x25 + y25 + x31 + y31 + x56 + y56 + x57 + y57 -2 w25 = 1
x26 + y26 + x32 + y32 + x57 + y57 + x58 + y58 -2 w26 = 1
x27 + y27 + x33 + y33 + x58 + y58 + x59 + y59 -2 w27 = 0
x28 + y28 + x34 + y34 + x59 + y59 + x60 + y60 -2 w28 = 0
x29 + y29 + x35 + y35 + x60 + y60 -2 w29 = 0
z0 + y0 + z1 + y1 + z36 + y36 -2 w30 = 0
z1 + y1 + z2 + y2 + z37 + y37 -2 w31 = 0
z2 + y2 + z3 + y3 + z38 + y38 -2 w32 = 0
z3 + y3 + z4 + y4 + z39 + y39 -2 w33 = 0
z4 + y4 + z5 + y5 + z40 + y40 -2 w34 = 0
z6 + y6 + z7 + y7 + z36 + y36 + z41 + y41 -2 w35 = 0
z7 + y7 + z8 + y8 + z37 + y37 + z42 + y42 -2 w36 = 0
z8 + y8 + z9 + y9 + z38 + y38 + z43 + y43 -2 w37 = 0
z9 + y9 + z10 + y10 + z39 + y39 + z44 + y44 -2 w38 = 0
z10 + y10 + z11 + y11 + z40 + y40 + z45 + y45 -2 w39 = 0
z12 + y12 + z13 + y13 + z41 + y41 + z46 + y46 -2 w40 = 0
z13 + y13 + z14 + y14 + z42 + y42 + z47 + y47 -2 w41 = 0
z14 + y14 + z15 + y15 + z43 + y43 + z48 + y48 -2 w42 = 0
z15 + y15 + z16 + y16 + z44 + y44 + z49 + y49 -2 w43 = 0
z16 + y16 + z17 + y17 + z45 + y45 + z50 + y50 -2 w44 = 0
z18 + y18 + z19 + y19 + z46 + y46 + z51 + y51 -2 w45 = 0
z19 + y19 + z20 + y20 + z47 + y47 + z52 + y52 -2 w46 = 0
z20 + y20 + z21 + y21 + z48 + y48 + z53 + y53 -2 w47 = 0
z21 + y21 + z22 + y22 + z49 + y49 + z54 + y54 -2 w48 = 0
z22 + y22 + z23 + y23 + z50 + y50 + z55 + y55 -2 w49 = 0
z24 + y24 + z25 + y25 + z51 + y51 + z56 + y56 -2 w50 = 0
z25 + y25 + z26 + y26 + z52 + y52 + z57 + y57 -2 w51 = 0
z26 + y26 + z27 + y27 + z53 + y53 + z58 + y58 -2 w52 = 0
z27 + y27 + z28 + y28 + z54 + y54 + z59 + y59 -2 w53 = 0
z28 + y28 + z29 + y29 + z55 + y55 + z60 + y60 -2 w54 = 0
z30 + y30 + z31 + y31 + z56 + y56 -2 w55 = 0
z31 + y31 + z32 + y32 + z57 + y57 -2 w56 = 0
z32 + y32 + z33 + y33 + z58 + y58 -2 w57 = 0
z33 + y33 + z34 + y34 + z59 + y59 -2 w58 = 0
z34 + y34 + z35 + y35 + z60 + y60 -2 w59 = 0


bound

general
w0
w1
w2
w3
w4
w5
w6
w7
w8
w9
w10
w11
w12
w13
w14
w15
w16
w17
w18
w19
w20
w21
w22
w23
w24
w25
w26
w27
w28
w29
w30
w31
w32
w33
w34
w35
w36
w37
w38
w39
w40
w41
w42
w43
w44
w45
w46
w47
w48
w49
w50
w51
w52
w53
w54
w55
w56
w57
w58
w59


binary

x0
x1
x2
x3
x4
x5
x6
x7
x8
x9
x10
x11
x12
x13
x14
x15
x16
x17
x18
x19
x20
x21
x22
x23
x24
x25
x26
x27
x28
x29
x30
x31
x32
x33
x34
x35
x36
x37
x38
x39
x40
x41
x42
x43
x44
x45
x46
x47
x48
x49
x50
x51
x52
x53
x54
x55
x56
x57
x58
x59
x60
y0
y1
y2
y3
y4
y5
y6
y7
y8
y9
y10
y11
y12
y13
y14
y15
y16
y17
y18
y19
y20
y21
y22
y23
y24
y25
y26
y27
y28
y29
y30
y31
y32
y33
y34
y35
y36
y37
y38
y39
y40
y41
y42
y43
y44
y45
y46
y47
y48
y49
y50
y51
y52
y53
y54
y55
y56
y57
y58
y59
y60
z0
z1
z2
z3
z4
z5
z6
z7
z8
z9
z10
z11
z12
z13
z14
z15
z16
z17
z18
z19
z20
z21
z22
z23
z24
z25
z26
z27
z28
z29
z30
z31
z32
z33
z34
z35
z36
z37
z38
z39
z40
z41
z42
z43
z44
z45
z46
z47
z48
z49
z50
z51
z52
z53
z54
z55
z56
z57
z58
z59
z60


end